0 0 0 0
0 1 0 0
0 2 0 0
0 3 2 0
0 4 1 2
0 5 2 1
0 6 0 1
0 7 1 11
0 8 2 1
0 9 1 10
0 10 1 12
0 11 1 19
0 12 2 12
0 13 1 16
0 14 2 2
0 15 2 2
0 16 2 21
0 17 0 11
0 18 2 20
0 19 2 12
0 20 2 12
0 21 2 19
0 22 0 26
0 23 0 27
0 24 2 27
0 25 0 37
0 26 2 29
0 27 2 29
0 28 0 40
0 29 0 39
0 30 2 20
0 31 0 41
